objective value:                                  -16
t_n_1                                               1 	(obj:-1)
t_n_120                                             1 	(obj:-1)
t_n_223                                             1 	(obj:-1)
t_n_304                                             1 	(obj:-1)
t_n_385                                             1 	(obj:-1)
t_n_402                                             1 	(obj:-1)
t_n_515                                             1 	(obj:-1)
t_n_545                                             1 	(obj:-1)
t_n_615                                             1 	(obj:-1)
t_n_661                                             1 	(obj:-1)
t_n_686                                             1 	(obj:-1)
t_n_708                                             1 	(obj:-1)
t_n_766                                             1 	(obj:-1)
t_n_777                                             1 	(obj:-1)
t_n_841                                             1 	(obj:-1)
t_n_963                                             1 	(obj:-1)
